unsat
(forall ((A (_ BitVec 21))
         (B (_ BitVec 14))
         (C (_ BitVec 14))
         (D (_ BitVec 14))
         (E (_ BitVec 18))
         (F (_ BitVec 3))
         (G (_ BitVec 18))
         (H (_ BitVec 18))
         (I (_ BitVec 21))
         (J (_ BitVec 17))
         (K (_ BitVec 14))
         (L (_ BitVec 21))
         (M (_ BitVec 14))
         (N (_ BitVec 1))
         (O (_ BitVec 1))
         (P (_ BitVec 21))
         (Q (_ BitVec 18))
         (R (_ BitVec 8))
         (S (_ BitVec 1))
         (T (_ BitVec 18))
         (U (_ BitVec 54))
         (V (_ BitVec 1))
         (W (_ BitVec 21))
         (X (_ BitVec 21))
         (Y (_ BitVec 1))
         (Z (_ BitVec 1))
         (A1 (_ BitVec 1))
         (B1 (_ BitVec 21))
         (C1 (_ BitVec 14))
         (D1 (_ BitVec 1))
         (E1 (_ BitVec 21))
         (F1 (_ BitVec 21))
         (G1 (_ BitVec 21))
         (H1 (_ BitVec 1))
         (I1 (_ BitVec 21))
         (J1 (_ BitVec 21))
         (K1 (_ BitVec 17))
         (L1 (_ BitVec 1))
         (M1 (_ BitVec 1))
         (N1 (_ BitVec 1))
         (O1 (_ BitVec 63))
         (P1 (_ BitVec 40))
         (Q1 (_ BitVec 40))
         (R1 (_ BitVec 32))
         (S1 (_ BitVec 32))
         (T1 (_ BitVec 18))
         (U1 (_ BitVec 18))
         (V1 (_ BitVec 21))
         (W1 (_ BitVec 1))
         (X1 (_ BitVec 1))
         (Y1 (_ BitVec 21))
         (Z1 (_ BitVec 21))
         (A2 (_ BitVec 21))
         (B2 (_ BitVec 32))
         (C2 (_ BitVec 1))
         (D2 (_ BitVec 40))
         (E2 (_ BitVec 32))
         (F2 (_ BitVec 1)))
  (! (let ((a!1 (not (= (bvmul #b111111111111111111111 ((_ extract 41 21) O1))
                        (concat #b0 ((_ extract 61 42) O1)))))
           (a!3 (or (= T1 #b000000000000000000)
                    (not ((_ bit2bool 20) O1))
                    (not (= ((_ extract 41 0) O1) ((_ extract 62 21) O1)))))
           (a!4 (not (= I1
                        (bvmul #b111111111111111111111 ((_ extract 20 0) O1)))))
           (a!5 (not (= (bvmul #b111111111111111111111 ((_ extract 62 42) O1))
                        (concat #b0 ((_ extract 40 21) O1)))))
           (a!8 (= (concat ((_ extract 16 16) K1) K1)
                   (bvmul #b111111111111111111 (concat ((_ extract 16 16) J) J))))
           (a!9 (not (= (bvmul #b111111111111111111 ((_ extract 17 0) U))
                        (concat #b0 ((_ extract 16 0) U))))))
     (let ((a!2 (or (= T1 #b000000000000000000)
                    (not ((_ bit2bool 41) O1))
                    (not (= ((_ extract 41 21) O1) ((_ extract 20 0) O1)))
                    a!1))
           (a!6 (or (not ((_ bit2bool 62) O1))
                    a!4
                    a!5
                    (not (= ((_ extract 62 42) O1) ((_ extract 20 0) O1)))))
           (a!7 (or (= T1 #b000000000000000000)
                    (not ((_ bit2bool 20) O1))
                    a!5
                    (not (= ((_ extract 62 42) O1) ((_ extract 20 0) O1))))))
     (let ((a!10 (and (or (= V #b1) (= H1 #b0))
                      (= B #b00000000000000)
                      (= ((_ extract 13 2) C) #x000)
                      (not ((_ bit2bool 2) F))
                      (= ((_ extract 13 4) D) #b0000000000)
                      (= ((_ extract 13 6) K) #x00)
                      (or (= F #b011) (= A1 #b1) (not (= M1 #b1)))
                      (or (= F #b000) (= F #b011) (not (= A1 #b1)))
                      (or (not (= F #b000)) (= A1 #b1))
                      (= ((_ extract 13 8) M) #b000000)
                      (or (= F #b011)
                          (not (= Y #b1))
                          ((_ bit2bool 1) U)
                          ((_ bit2bool 19) U)
                          ((_ bit2bool 37) U)
                          (not ((_ bit2bool 36) U))
                          (not ((_ bit2bool 18) U)))
                      (or (= F #b011) (not (= Y #b1)) (not (= A1 #b1)))
                      (or (= F #b011) (not (= Y #b1)) (not (= L1 #b1)))
                      (or (not (= L1 #b1)) (= ((_ extract 1 1) F) #b1))
                      a!2
                      a!3
                      (or (= T1 #b000000000000000000)
                          ((_ bit2bool 40) O1)
                          ((_ bit2bool 61) O1)
                          (not ((_ bit2bool 20) O1)))
                      a!6
                      a!7
                      (= ((_ extract 13 10) C1) #x0)
                      (or (not ((_ bit2bool 17) U))
                          (= ((_ extract 1 1) F) #b1)
                          (not a!8))
                      (or (= F #b011)
                          (not (= Y #b1))
                          ((_ bit2bool 0) U)
                          ((_ bit2bool 18) U)
                          (not ((_ bit2bool 36) U)))
                      (or (not (= Y #b1))
                          ((_ bit2bool 3) K1)
                          ((_ bit2bool 21) U)
                          (not ((_ bit2bool 36) U))
                          (= ((_ extract 1 1) F) #b1)
                          a!9))))
       (= (INV!slice!1 A
                       B
                       C
                       D
                       E
                       F
                       G
                       H
                       I
                       J
                       K
                       L
                       M
                       N
                       O
                       P
                       Q
                       R
                       S
                       T
                       U
                       V
                       W
                       X
                       Y
                       Z
                       A1
                       B1
                       C1
                       D1
                       E1
                       F1
                       G1
                       H1
                       I1
                       J1
                       K1
                       L1
                       M1
                       N1
                       O1
                       P1
                       Q1
                       R1
                       S1
                       T1
                       U1
                       V1
                       W1
                       X1
                       Y1
                       Z1
                       A2
                       B2
                       C2
                       D2
                       E2
                       F2)
          a!10))))
     :weight 0))
